0 1 66
0 2 70
0 3 16
0 4 15
0 5 25
0 6 67
0 7 98
0 8 10
0 9 39
0 10 39
0 11 81
0 12 3
0 13 61
0 14 20
0 15 68
0 16 45
0 17 77
0 18 37
0 19 82
0 20 79
0 21 59
0 22 60
0 23 68
0 24 61
0 25 59
0 26 61
0 27 25
0 28 30
0 29 96
0 30 95
0 31 33
0 32 96
0 33 86
0 34 67
0 35 90
0 36 7
0 37 55
0 38 71
0 39 79
0 40 98
0 41 24
0 42 67
0 43 29
0 44 39
0 45 91
0 46 52
0 47 35
0 48 48
0 49 70
1 2 66
1 3 51
1 4 62
1 5 44
1 6 36
1 7 50
1 8 71
1 9 73
1 10 84
1 11 18
1 12 66
1 13 8
1 14 66
1 15 76
1 16 49
1 17 73
1 18 45
1 19 30
1 20 14
1 21 45
1 22 28
1 23 94
1 24 41
1 25 84
1 26 16
1 27 62
1 28 78
1 29 74
1 30 61
1 31 82
1 32 78
1 33 21
1 34 26
1 35 69
1 36 65
1 37 76
1 38 90
1 39 48
1 40 36
1 41 56
1 42 30
1 43 39
1 44 86
1 45 58
1 46 63
1 47 67
1 48 36
1 49 99
2 3 86
2 4 85
2 5 82
2 6 32
2 7 67
2 8 79
2 9 78
2 10 60
2 11 68
2 12 69
2 13 62
2 14 63
2 15 55
2 16 83
2 17 29
2 18 53
2 19 92
2 20 73
2 21 95
2 22 47
2 23 89
2 24 59
2 25 18
2 26 57
2 27 57
2 28 81
2 29 81
2 30 52
2 31 54
2 32 66
2 33 64
2 34 92
2 35 48
2 36 74
2 37 85
2 38 62
2 39 36
2 40 78
2 41 90
2 42 83
2 43 47
2 44 38
2 45 93
2 46 51
2 47 94
2 48 92
2 49 61
3 4 16
3 5 20
3 6 67
3 7 95
3 8 23
3 9 25
3 10 50
3 11 66
3 12 17
3 13 46
3 14 28
3 15 65
3 16 57
3 17 61
3 18 41
3 19 76
3 20 63
3 21 60
3 22 58
3 23 52
3 24 48
3 25 71
3 26 65
3 27 37
3 28 32
3 29 96
3 30 92
3 31 42
3 32 86
3 33 71
3 34 67
3 35 93
3 36 15
3 37 45
3 38 82
3 39 90
3 40 85
3 41 21
3 42 81
3 43 45
3 44 54
3 45 79
3 46 66
3 47 20
3 48 41
3 49 56
4 5 24
4 6 72
4 7 100
4 8 23
4 9 28
4 10 38
4 11 71
4 12 16
4 13 60
4 14 31
4 15 58
4 16 41
4 17 65
4 18 44
4 19 83
4 20 70
4 21 73
4 22 56
4 23 68
4 24 59
4 25 68
4 26 57
4 27 40
4 28 32
4 29 99
4 30 84
4 31 34
4 32 89
4 33 82
4 34 53
4 35 100
4 36 22
4 37 45
4 38 67
4 39 87
4 40 90
4 41 18
4 42 76
4 43 40
4 44 48
4 45 93
4 46 50
4 47 20
4 48 39
4 49 71
5 6 63
5 7 86
5 8 27
5 9 45
5 10 51
5 11 62
5 12 27
5 13 44
5 14 24
5 15 52
5 16 54
5 17 76
5 18 41
5 19 70
5 20 55
5 21 58
5 22 50
5 23 62
5 24 56
5 25 78
5 26 60
5 27 44
5 28 40
5 29 81
5 30 85
5 31 45
5 32 74
5 33 62
5 34 58
5 35 83
5 36 26
5 37 34
5 38 75
5 39 91
5 40 75
5 41 13
5 42 73
5 43 42
5 44 49
5 45 97
5 46 59
5 47 34
5 48 48
5 49 55
6 7 75
6 8 60
6 9 87
6 10 86
6 11 49
6 12 70
6 13 40
6 14 47
6 15 46
6 16 84
6 17 53
6 18 42
6 19 66
6 20 49
6 21 67
6 22 30
6 23 80
6 24 62
6 25 50
6 26 42
6 27 80
6 28 76
6 29 60
6 30 37
6 31 58
6 32 83
6 33 49
6 34 60
6 35 53
6 36 68
6 37 64
6 38 93
6 39 53
6 40 52
6 41 67
6 42 53
6 43 43
6 44 61
6 45 66
6 46 76
6 47 70
6 48 67
6 49 79
7 8 96
7 9 82
7 10 69
7 11 33
7 12 96
7 13 55
7 14 79
7 15 92
7 16 90
7 17 91
7 18 71
7 19 55
7 20 63
7 21 50
7 22 60
7 23 99
7 24 86
7 25 79
7 26 59
7 27 100
7 28 90
7 29 58
7 30 97
7 31 81
7 32 33
7 33 57
7 34 57
7 35 65
7 36 93
7 37 55
7 38 71
7 39 63
7 40 82
7 41 86
7 42 63
7 43 76
7 44 60
7 45 79
7 46 89
7 47 81
7 48 86
7 49 67
8 9 35
8 10 32
8 11 72
8 12 10
8 13 66
8 14 30
8 15 67
8 16 40
8 17 82
8 18 34
8 19 92
8 20 76
8 21 66
8 22 66
8 23 66
8 24 67
8 25 62
8 26 70
8 27 28
8 28 21
8 29 90
8 30 92
8 31 29
8 32 96
8 33 86
8 34 68
8 35 99
8 36 9
8 37 60
8 38 65
8 39 86
8 40 100
8 41 27
8 42 69
8 43 36
8 44 46
8 45 96
8 46 55
8 47 41
8 48 47
8 49 63
9 10 50
9 11 64
9 12 42
9 13 70
9 14 49
9 15 75
9 16 34
9 17 73
9 18 57
9 19 83
9 20 67
9 21 59
9 22 60
9 23 45
9 24 61
9 25 93
9 26 76
9 27 37
9 28 55
9 29 99
9 30 81
9 31 52
9 32 88
9 33 82
9 34 64
9 35 74
9 36 35
9 37 48
9 38 73
9 39 95
9 40 75
9 41 38
9 42 93
9 43 45
9 44 50
9 45 96
9 46 57
9 47 23
9 48 37
9 49 68
10 11 79
10 12 41
10 13 88
10 14 49
10 15 59
10 16 46
10 17 87
10 18 52
10 19 61
10 20 78
10 21 43
10 22 58
10 23 43
10 24 46
10 25 73
10 26 95
10 27 38
10 28 33
10 29 71
10 30 61
10 31 28
10 32 77
10 33 85
10 34 59
10 35 76
10 36 37
10 37 35
10 38 81
10 39 64
10 40 79
10 41 44
10 42 85
10 43 45
10 44 52
10 45 72
10 46 57
10 47 48
10 48 73
10 49 53
11 12 79
11 13 26
11 14 67
11 15 86
11 16 61
11 17 82
11 18 50
11 19 41
11 20 30
11 21 49
11 22 46
11 23 90
11 24 56
11 25 86
11 26 31
11 27 75
11 28 87
11 29 65
11 30 75
11 31 75
11 32 62
11 33 39
11 34 31
11 35 74
11 36 78
11 37 86
11 38 98
11 39 61
11 40 53
11 41 68
11 42 31
11 43 55
11 44 68
11 45 53
11 46 63
11 47 58
11 48 54
11 49 96
12 13 58
12 14 23
12 15 66
12 16 44
12 17 77
12 18 37
12 19 84
12 20 80
12 21 62
12 22 58
12 23 65
12 24 62
12 25 58
12 26 63
12 27 24
12 28 31
12 29 93
12 30 95
12 31 33
12 32 99
12 33 86
12 34 66
12 35 90
12 36 9
12 37 53
12 38 74
12 39 77
12 40 98
12 41 22
12 42 65
12 43 29
12 44 41
12 45 90
12 46 50
12 47 35
12 48 48
12 49 71
13 14 64
13 15 75
13 16 50
13 17 76
13 18 52
13 19 30
13 20 22
13 21 52
13 22 31
13 23 86
13 24 44
13 25 77
13 26 24
13 27 61
13 28 75
13 29 66
13 30 69
13 31 82
13 32 74
13 33 29
13 34 34
13 35 77
13 36 60
13 37 78
13 38 93
13 39 56
13 40 42
13 41 54
13 42 37
13 43 45
13 44 85
13 45 63
13 46 63
13 47 64
13 48 33
13 49 96
14 15 75
14 16 59
14 17 83
14 18 50
14 19 74
14 20 78
14 21 67
14 22 40
14 23 60
14 24 57
14 25 78
14 26 52
14 27 36
14 28 40
14 29 84
14 30 80
14 31 37
14 32 91
14 33 74
14 34 51
14 35 100
14 36 23
14 37 40
14 38 79
14 39 90
14 40 82
14 41 37
14 42 75
14 43 33
14 44 37
14 45 82
14 46 47
14 47 32
14 48 53
14 49 78
15 16 90
15 17 57
15 18 52
15 19 61
15 20 71
15 21 52
15 22 48
15 23 58
15 24 86
15 25 42
15 26 78
15 27 81
15 28 80
15 29 81
15 30 55
15 31 55
15 32 64
15 33 61
15 34 90
15 35 92
15 36 64
15 37 61
15 38 91
15 39 70
15 40 92
15 41 49
15 42 86
15 43 62
15 44 48
15 45 75
15 46 75
15 47 74
15 48 43
15 49 38
16 17 70
16 18 68
16 19 58
16 20 43
16 21 82
16 22 62
16 23 73
16 24 36
16 25 87
16 26 63
16 27 64
16 28 60
16 29 89
16 30 72
16 31 44
16 32 92
16 33 58
16 34 61
16 35 79
16 36 43
16 37 49
16 38 47
16 39 66
16 40 79
16 41 58
16 42 76
16 43 71
16 44 73
16 45 89
16 46 48
16 47 37
16 48 63
16 49 57
17 18 53
17 19 80
17 20 59
17 21 80
17 22 54
17 23 68
17 24 56
17 25 36
17 26 73
17 27 65
17 28 85
17 29 97
17 30 62
17 31 60
17 32 58
17 33 64
17 34 80
17 35 51
17 36 75
17 37 86
17 38 81
17 39 47
17 40 57
17 41 79
17 42 67
17 43 70
17 44 57
17 45 87
17 46 53
17 47 73
17 48 85
17 49 56
18 19 74
18 20 45
18 21 56
18 22 54
18 23 63
18 24 46
18 25 63
18 26 58
18 27 54
18 28 37
18 29 75
18 30 66
18 31 38
18 32 98
18 33 59
18 34 71
18 35 87
18 36 35
18 37 36
18 38 79
18 39 62
18 40 78
18 41 54
18 42 55
18 43 18
18 44 63
18 45 78
18 46 50
18 47 56
18 48 64
18 49 56
19 20 34
19 21 57
19 22 46
19 23 78
19 24 46
19 25 99
19 26 39
19 27 68
19 28 75
19 29 73
19 30 90
19 31 70
19 32 83
19 33 50
19 34 34
19 35 78
19 36 89
19 37 70
19 38 68
19 39 58
19 40 42
19 41 82
19 42 32
19 43 68
19 44 64
19 45 64
19 46 56
19 47 81
19 48 62
19 49 87
20 21 56
20 22 42
20 23 92
20 24 35
20 25 71
20 26 30
20 27 75
20 28 77
20 29 68
20 30 64
20 31 72
20 32 87
20 33 34
20 34 35
20 35 81
20 36 76
20 37 71
20 38 84
20 39 55
20 40 39
20 41 63
20 42 34
20 43 52
20 44 79
20 45 68
20 46 74
20 47 79
20 48 50
20 49 87
21 22 56
21 23 50
21 24 61
21 25 93
21 26 58
21 27 57
21 28 54
21 29 54
21 30 91
21 31 62
21 32 51
21 33 57
21 34 60
21 35 49
21 36 64
21 37 67
21 38 83
21 39 80
21 40 47
21 41 60
21 42 66
21 43 51
21 44 81
21 45 58
21 46 44
21 47 53
21 48 65
21 49 63
22 23 70
22 24 59
22 25 65
22 26 41
22 27 55
22 28 65
22 29 81
22 30 59
22 31 74
22 32 81
22 33 41
22 34 50
22 35 73
22 36 60
22 37 78
22 38 98
22 39 68
22 40 63
22 41 54
22 42 45
22 43 61
22 44 77
22 45 59
22 46 75
22 47 59
22 48 54
22 49 79
23 24 73
23 25 77
23 26 91
23 27 46
23 28 63
23 29 68
23 30 91
23 31 68
23 32 94
23 33 77
23 34 68
23 35 50
23 36 62
23 37 63
23 38 41
23 39 65
23 40 90
23 41 61
23 42 68
23 43 72
23 44 75
23 45 92
23 46 60
23 47 51
23 48 58
23 49 68
24 25 73
24 26 55
24 27 80
24 28 61
24 29 72
24 30 54
24 31 43
24 32 89
24 33 57
24 34 40
24 35 46
24 36 62
24 37 57
24 38 58
24 39 62
24 40 54
24 41 61
24 42 68
24 43 50
24 44 48
24 45 61
24 46 52
24 47 60
24 48 49
24 49 77
25 26 72
25 27 57
25 28 74
25 29 89
25 30 55
25 31 59
25 32 77
25 33 81
25 34 83
25 35 63
25 36 63
25 37 85
25 38 75
25 39 50
25 40 79
25 41 74
25 42 71
25 43 60
25 44 44
25 45 88
25 46 64
25 47 77
25 48 75
25 49 64
26 27 76
26 28 84
26 29 73
26 30 57
26 31 68
26 32 89
26 33 29
26 34 36
26 35 73
26 36 67
26 37 79
26 38 96
26 39 56
26 40 47
26 41 62
26 42 46
26 43 51
26 44 72
26 45 44
26 46 63
26 47 60
26 48 48
26 49 86
27 28 48
27 29 95
27 30 85
27 31 43
27 32 85
27 33 76
27 34 51
27 35 92
27 36 23
27 37 52
27 38 69
27 39 91
27 40 85
27 41 40
27 42 76
27 43 40
27 44 47
27 45 85
27 46 44
27 47 52
27 48 50
27 49 52
28 29 81
28 30 85
28 31 28
28 32 75
28 33 85
28 34 60
28 35 88
28 36 26
28 37 55
28 38 74
28 39 79
28 40 91
28 41 31
28 42 59
28 43 48
28 44 46
28 45 89
28 46 53
28 47 46
28 48 53
28 49 67
29 30 86
29 31 86
29 32 89
29 33 53
29 34 51
29 35 91
29 36 89
29 37 95
29 38 98
29 39 91
29 40 76
29 41 81
29 42 83
29 43 75
29 44 66
29 45 54
29 46 66
29 47 89
29 48 69
29 49 46
30 31 87
30 32 80
30 33 62
30 34 69
30 35 58
30 36 90
30 37 79
30 38 78
30 39 46
30 40 87
30 41 97
30 42 64
30 43 73
30 44 87
30 45 75
30 46 49
30 47 82
30 48 72
30 49 76
31 32 90
31 33 71
31 34 80
31 35 78
31 36 28
31 37 36
31 38 84
31 39 73
31 40 93
31 41 37
31 42 68
31 43 52
31 44 66
31 45 100
31 46 79
31 47 43
31 48 50
31 49 72
32 33 71
32 34 74
32 35 74
32 36 90
32 37 77
32 38 69
32 39 64
32 40 90
32 41 80
32 42 83
32 43 81
32 44 66
32 45 91
32 46 87
32 47 74
32 48 94
32 49 64
33 34 32
33 35 86
33 36 83
33 37 69
33 38 89
33 39 53
33 40 53
33 41 67
33 42 50
33 43 58
33 44 92
33 45 49
33 46 78
33 47 74
33 48 55
33 49 83
34 35 71
34 36 63
34 37 57
34 38 96
34 39 66
34 40 42
34 41 50
34 42 48
34 43 64
34 44 71
34 45 80
34 46 88
34 47 68
34 48 47
34 49 88
35 36 96
35 37 66
35 38 60
35 39 57
35 40 74
35 41 93
35 42 80
35 43 86
35 44 83
35 45 56
35 46 53
35 47 92
35 48 78
35 49 69
36 37 55
36 38 73
36 39 77
36 40 93
36 41 24
36 42 66
36 43 31
36 44 45
36 45 87
36 46 58
36 47 34
36 48 54
36 49 67
37 38 93
37 39 95
37 40 97
37 41 33
37 42 80
37 43 47
37 44 58
37 45 67
37 46 46
37 47 54
37 48 54
37 49 77
38 39 88
38 40 79
38 41 74
38 42 84
38 43 86
38 44 90
38 45 94
38 46 55
38 47 78
38 48 67
38 49 63
39 40 52
39 41 85
39 42 51
39 43 74
39 44 59
39 45 68
39 46 53
39 47 73
39 48 71
39 49 52
40 41 82
40 42 43
40 43 71
40 44 77
40 45 62
40 46 76
40 47 86
40 48 68
40 49 71
41 42 81
41 43 51
41 44 61
41 45 92
41 46 61
41 47 28
41 48 55
41 49 58
42 43 65
42 44 74
42 45 82
42 46 76
42 47 78
42 48 59
42 49 99
43 44 67
43 45 69
43 46 62
43 47 53
43 48 55
43 49 72
44 45 81
44 46 73
44 47 64
44 48 67
44 49 85
45 46 86
45 47 92
45 48 66
45 49 53
46 47 69
46 48 66
46 49 60
47 48 36
47 49 58
48 49 72
